p cnf 200 1110
-101 -16 0
-101 -29 0
-101 -54 0
-101 45 0
-101 -55 0
-101 -63 0
-101 -32 0
-101 98 0
-101 46 0
-101 -11 0
101 16 29 54 -45 55 63 32 -98 -46 11 0
-102 100 0
-102 -88 0
-102 -66 0
-102 28 0
-102 24 0
-102 51 0
-102 -3 0
-102 4 0
-102 14 0
-102 35 0
102 -100 88 66 -28 -24 -51 3 -4 -14 -35 0
-103 -22 0
-103 -77 0
-103 -82 0
-103 -43 0
-103 -93 0
-103 -91 0
-103 -58 0
-103 7 0
-103 94 0
-103 -84 0
103 22 77 82 43 93 91 58 -7 -94 84 0
-104 98 0
-104 -14 0
-104 72 0
-104 90 0
-104 8 0
-104 -88 0
-104 -36 0
-104 32 0
-104 -48 0
-104 61 0
104 -98 14 -72 -90 -8 88 36 -32 48 -61 0
-105 77 0
-105 -28 0
-105 88 0
-105 95 0
-105 23 0
-105 46 0
-105 73 0
-105 -48 0
-105 7 0
-105 86 0
105 -77 28 -88 -95 -23 -46 -73 48 -7 -86 0
-106 40 0
-106 -45 0
-106 -49 0
-106 50 0
-106 -37 0
-106 3 0
-106 -87 0
-106 34 0
-106 -67 0
-106 -89 0
106 -40 45 49 -50 37 -3 87 -34 67 89 0
-107 -69 0
-107 -97 0
-107 82 0
-107 4 0
-107 47 0
-107 70 0
-107 46 0
-107 -5 0
-107 -92 0
-107 16 0
107 69 97 -82 -4 -47 -70 -46 5 92 -16 0
-108 70 0
-108 -22 0
-108 26 0
-108 -21 0
-108 78 0
-108 9 0
-108 79 0
-108 -15 0
-108 -99 0
-108 58 0
108 -70 22 -26 21 -78 -9 -79 15 99 -58 0
-109 53 0
-109 49 0
-109 -99 0
-109 57 0
-109 -98 0
-109 38 0
-109 -14 0
-109 93 0
-109 61 0
-109 52 0
109 -53 -49 99 -57 98 -38 14 -93 -61 -52 0
-110 -1 0
-110 30 0
-110 -2 0
-110 -47 0
-110 -34 0
-110 76 0
-110 73 0
-110 -95 0
-110 77 0
-110 60 0
110 1 -30 2 47 34 -76 -73 95 -77 -60 0
101 102 103 104 105 106 107 108 109 110 0
-111 97 0
-111 -74 0
-111 61 0
-111 -21 0
-111 100 0
-111 -41 0
-111 -37 0
-111 -7 0
-111 -18 0
-111 -58 0
111 -97 74 -61 21 -100 41 37 7 18 58 0
-112 -70 0
-112 -76 0
-112 -82 0
-112 15 0
-112 56 0
-112 41 0
-112 44 0
-112 -48 0
-112 -18 0
-112 -77 0
112 70 76 82 -15 -56 -41 -44 48 18 77 0
-113 41 0
-113 -64 0
-113 -6 0
-113 -15 0
-113 84 0
-113 -67 0
-113 -12 0
-113 32 0
-113 -19 0
-113 51 0
113 -41 64 6 15 -84 67 12 -32 19 -51 0
-114 -75 0
-114 -78 0
-114 -43 0
-114 59 0
-114 -39 0
-114 -14 0
-114 7 0
-114 -69 0
-114 -80 0
-114 -35 0
114 75 78 43 -59 39 14 -7 69 80 35 0
-115 73 0
-115 20 0
-115 89 0
-115 75 0
-115 54 0
-115 74 0
-115 -38 0
-115 68 0
-115 -34 0
-115 83 0
115 -73 -20 -89 -75 -54 -74 38 -68 34 -83 0
-116 -8 0
-116 -89 0
-116 -21 0
-116 -40 0
-116 56 0
-116 44 0
-116 7 0
-116 -45 0
-116 -96 0
-116 46 0
116 8 89 21 40 -56 -44 -7 45 96 -46 0
-117 -56 0
-117 -30 0
-117 -60 0
-117 -3 0
-117 53 0
-117 76 0
-117 -65 0
-117 -5 0
-117 52 0
-117 49 0
117 56 30 60 3 -53 -76 65 5 -52 -49 0
-118 -25 0
-118 97 0
-118 -91 0
-118 -100 0
-118 -77 0
-118 37 0
-118 22 0
-118 -81 0
-118 -1 0
-118 -94 0
118 25 -97 91 100 77 -37 -22 81 1 94 0
-119 71 0
-119 2 0
-119 -39 0
-119 -27 0
-119 -56 0
-119 52 0
-119 8 0
-119 -83 0
-119 -25 0
-119 -58 0
119 -71 -2 39 27 56 -52 -8 83 25 58 0
-120 52 0
-120 15 0
-120 -5 0
-120 77 0
-120 -17 0
-120 -1 0
-120 97 0
-120 -82 0
-120 -49 0
-120 -62 0
120 -52 -15 5 -77 17 1 -97 82 49 62 0
111 112 113 114 115 116 117 118 119 120 0
-121 -40 0
-121 6 0
-121 3 0
-121 39 0
-121 4 0
-121 28 0
-121 -27 0
-121 18 0
-121 47 0
-121 92 0
121 40 -6 -3 -39 -4 -28 27 -18 -47 -92 0
-122 -3 0
-122 99 0
-122 16 0
-122 -75 0
-122 14 0
-122 -63 0
-122 -36 0
-122 22 0
-122 98 0
-122 48 0
122 3 -99 -16 75 -14 63 36 -22 -98 -48 0
-123 50 0
-123 17 0
-123 28 0
-123 -44 0
-123 -19 0
-123 60 0
-123 93 0
-123 -5 0
-123 79 0
-123 57 0
123 -50 -17 -28 44 19 -60 -93 5 -79 -57 0
-124 14 0
-124 -3 0
-124 -6 0
-124 -72 0
-124 60 0
-124 65 0
-124 -51 0
-124 93 0
-124 84 0
-124 -20 0
124 -14 3 6 72 -60 -65 51 -93 -84 20 0
-125 -24 0
-125 90 0
-125 -96 0
-125 -45 0
-125 39 0
-125 -66 0
-125 -27 0
-125 70 0
-125 -65 0
-125 -42 0
125 24 -90 96 45 -39 66 27 -70 65 42 0
-126 -37 0
-126 66 0
-126 -91 0
-126 18 0
-126 -35 0
-126 60 0
-126 56 0
-126 8 0
-126 -19 0
-126 79 0
126 37 -66 91 -18 35 -60 -56 -8 19 -79 0
-127 8 0
-127 -48 0
-127 65 0
-127 68 0
-127 39 0
-127 2 0
-127 71 0
-127 34 0
-127 86 0
-127 51 0
127 -8 48 -65 -68 -39 -2 -71 -34 -86 -51 0
-128 46 0
-128 -60 0
-128 96 0
-128 -12 0
-128 2 0
-128 -10 0
-128 -93 0
-128 -72 0
-128 65 0
-128 -92 0
128 -46 60 -96 12 -2 10 93 72 -65 92 0
-129 -2 0
-129 58 0
-129 80 0
-129 -1 0
-129 -43 0
-129 -8 0
-129 60 0
-129 -81 0
-129 87 0
-129 73 0
129 2 -58 -80 1 43 8 -60 81 -87 -73 0
-130 57 0
-130 91 0
-130 4 0
-130 35 0
-130 -50 0
-130 3 0
-130 11 0
-130 -69 0
-130 -79 0
-130 -84 0
130 -57 -91 -4 -35 50 -3 -11 69 79 84 0
121 122 123 124 125 126 127 128 129 130 0
-131 39 0
-131 -87 0
-131 68 0
-131 -41 0
-131 40 0
-131 92 0
-131 -78 0
-131 -66 0
-131 -59 0
-131 62 0
131 -39 87 -68 41 -40 -92 78 66 59 -62 0
-132 -23 0
-132 81 0
-132 44 0
-132 -67 0
-132 18 0
-132 74 0
-132 -54 0
-132 34 0
-132 94 0
-132 -41 0
132 23 -81 -44 67 -18 -74 54 -34 -94 41 0
-133 79 0
-133 18 0
-133 -98 0
-133 -3 0
-133 65 0
-133 -76 0
-133 1 0
-133 -84 0
-133 -25 0
-133 -88 0
133 -79 -18 98 3 -65 76 -1 84 25 88 0
-134 -58 0
-134 95 0
-134 27 0
-134 52 0
-134 -37 0
-134 8 0
-134 92 0
-134 -19 0
-134 44 0
-134 22 0
134 58 -95 -27 -52 37 -8 -92 19 -44 -22 0
-135 -66 0
-135 -59 0
-135 -75 0
-135 -80 0
-135 -11 0
-135 -35 0
-135 -76 0
-135 -79 0
-135 -34 0
-135 61 0
135 66 59 75 80 11 35 76 79 34 -61 0
-136 3 0
-136 -10 0
-136 60 0
-136 -68 0
-136 -34 0
-136 9 0
-136 75 0
-136 63 0
-136 82 0
-136 -50 0
136 -3 10 -60 68 34 -9 -75 -63 -82 50 0
-137 -22 0
-137 56 0
-137 -71 0
-137 2 0
-137 -27 0
-137 61 0
-137 -55 0
-137 -48 0
-137 30 0
-137 -81 0
137 22 -56 71 -2 27 -61 55 48 -30 81 0
-138 20 0
-138 32 0
-138 -56 0
-138 8 0
-138 93 0
-138 -57 0
-138 50 0
-138 -46 0
-138 88 0
-138 -15 0
138 -20 -32 56 -8 -93 57 -50 46 -88 15 0
-139 61 0
-139 -56 0
-139 86 0
-139 -85 0
-139 -60 0
-139 -39 0
-139 92 0
-139 88 0
-139 65 0
-139 30 0
139 -61 56 -86 85 60 39 -92 -88 -65 -30 0
-140 100 0
-140 -97 0
-140 86 0
-140 99 0
-140 74 0
-140 31 0
-140 -29 0
-140 42 0
-140 -79 0
-140 -18 0
140 -100 97 -86 -99 -74 -31 29 -42 79 18 0
131 132 133 134 135 136 137 138 139 140 0
-141 -76 0
-141 -37 0
-141 -11 0
-141 -9 0
-141 -14 0
-141 62 0
-141 -98 0
-141 92 0
-141 -69 0
-141 99 0
141 76 37 11 9 14 -62 98 -92 69 -99 0
-142 -53 0
-142 60 0
-142 45 0
-142 44 0
-142 14 0
-142 -80 0
-142 -70 0
-142 -50 0
-142 -57 0
-142 49 0
142 53 -60 -45 -44 -14 80 70 50 57 -49 0
-143 16 0
-143 -84 0
-143 -27 0
-143 -62 0
-143 -88 0
-143 58 0
-143 -10 0
-143 30 0
-143 37 0
-143 -4 0
143 -16 84 27 62 88 -58 10 -30 -37 4 0
-144 -42 0
-144 -13 0
-144 -19 0
-144 -99 0
-144 -78 0
-144 -82 0
-144 -91 0
-144 68 0
-144 -12 0
-144 -9 0
144 42 13 19 99 78 82 91 -68 12 9 0
-145 36 0
-145 15 0
-145 -64 0
-145 54 0
-145 -62 0
-145 60 0
-145 -65 0
-145 -48 0
-145 -99 0
-145 73 0
145 -36 -15 64 -54 62 -60 65 48 99 -73 0
-146 38 0
-146 91 0
-146 -16 0
-146 -17 0
-146 -70 0
-146 86 0
-146 88 0
-146 9 0
-146 -92 0
-146 57 0
146 -38 -91 16 17 70 -86 -88 -9 92 -57 0
-147 46 0
-147 -79 0
-147 83 0
-147 40 0
-147 -29 0
-147 22 0
-147 2 0
-147 -21 0
-147 -58 0
-147 -47 0
147 -46 79 -83 -40 29 -22 -2 21 58 47 0
-148 32 0
-148 -81 0
-148 90 0
-148 -82 0
-148 -100 0
-148 -83 0
-148 -15 0
-148 -49 0
-148 50 0
-148 86 0
148 -32 81 -90 82 100 83 15 49 -50 -86 0
-149 70 0
-149 75 0
-149 -64 0
-149 88 0
-149 40 0
-149 54 0
-149 -98 0
-149 -77 0
-149 32 0
-149 -13 0
149 -70 -75 64 -88 -40 -54 98 77 -32 13 0
-150 -34 0
-150 39 0
-150 90 0
-150 -42 0
-150 -12 0
-150 -9 0
-150 86 0
-150 -72 0
-150 -82 0
-150 -6 0
150 34 -39 -90 42 12 9 -86 72 82 6 0
141 142 143 144 145 146 147 148 149 150 0
-151 -13 0
-151 -91 0
-151 88 0
-151 61 0
-151 31 0
-151 73 0
-151 -55 0
-151 -51 0
-151 -5 0
-151 100 0
151 13 91 -88 -61 -31 -73 55 51 5 -100 0
-152 40 0
-152 -16 0
-152 -50 0
-152 98 0
-152 91 0
-152 -43 0
-152 3 0
-152 97 0
-152 25 0
-152 20 0
152 -40 16 50 -98 -91 43 -3 -97 -25 -20 0
-153 -32 0
-153 -28 0
-153 -70 0
-153 -54 0
-153 21 0
-153 45 0
-153 -30 0
-153 -33 0
-153 34 0
-153 43 0
153 32 28 70 54 -21 -45 30 33 -34 -43 0
-154 50 0
-154 -17 0
-154 -15 0
-154 -42 0
-154 -43 0
-154 -13 0
-154 3 0
-154 -33 0
-154 36 0
-154 -88 0
154 -50 17 15 42 43 13 -3 33 -36 88 0
-155 92 0
-155 -22 0
-155 82 0
-155 -52 0
-155 17 0
-155 -6 0
-155 34 0
-155 77 0
-155 -26 0
-155 36 0
155 -92 22 -82 52 -17 6 -34 -77 26 -36 0
-156 71 0
-156 -53 0
-156 -88 0
-156 34 0
-156 -55 0
-156 35 0
-156 -82 0
-156 39 0
-156 -6 0
-156 66 0
156 -71 53 88 -34 55 -35 82 -39 6 -66 0
-157 16 0
-157 18 0
-157 15 0
-157 74 0
-157 -59 0
-157 85 0
-157 20 0
-157 -19 0
-157 -6 0
-157 -50 0
157 -16 -18 -15 -74 59 -85 -20 19 6 50 0
-158 93 0
-158 100 0
-158 -34 0
-158 -73 0
-158 57 0
-158 65 0
-158 -79 0
-158 75 0
-158 23 0
-158 25 0
158 -93 -100 34 73 -57 -65 79 -75 -23 -25 0
-159 -100 0
-159 -51 0
-159 -18 0
-159 -56 0
-159 -46 0
-159 -13 0
-159 37 0
-159 -33 0
-159 -6 0
-159 -50 0
159 100 51 18 56 46 13 -37 33 6 50 0
-160 99 0
-160 -73 0
-160 61 0
-160 96 0
-160 88 0
-160 -94 0
-160 90 0
-160 -12 0
-160 -62 0
-160 76 0
160 -99 73 -61 -96 -88 94 -90 12 62 -76 0
151 152 153 154 155 156 157 158 159 160 0
-161 22 0
-161 12 0
-161 -60 0
-161 -67 0
-161 -56 0
-161 -33 0
-161 24 0
-161 -36 0
-161 31 0
-161 42 0
161 -22 -12 60 67 56 33 -24 36 -31 -42 0
-162 100 0
-162 98 0
-162 12 0
-162 6 0
-162 5 0
-162 15 0
-162 39 0
-162 -73 0
-162 -75 0
-162 4 0
162 -100 -98 -12 -6 -5 -15 -39 73 75 -4 0
-163 36 0
-163 92 0
-163 -9 0
-163 100 0
-163 26 0
-163 -53 0
-163 -83 0
-163 -50 0
-163 -71 0
-163 -77 0
163 -36 -92 9 -100 -26 53 83 50 71 77 0
-164 -19 0
-164 18 0
-164 97 0
-164 76 0
-164 -68 0
-164 56 0
-164 62 0
-164 -70 0
-164 38 0
-164 31 0
164 19 -18 -97 -76 68 -56 -62 70 -38 -31 0
-165 13 0
-165 6 0
-165 -27 0
-165 19 0
-165 -54 0
-165 -65 0
-165 30 0
-165 -44 0
-165 2 0
-165 -82 0
165 -13 -6 27 -19 54 65 -30 44 -2 82 0
-166 -32 0
-166 12 0
-166 -40 0
-166 49 0
-166 -17 0
-166 72 0
-166 56 0
-166 -39 0
-166 91 0
-166 78 0
166 32 -12 40 -49 17 -72 -56 39 -91 -78 0
-167 -63 0
-167 -3 0
-167 75 0
-167 40 0
-167 -36 0
-167 -20 0
-167 33 0
-167 -19 0
-167 84 0
-167 24 0
167 63 3 -75 -40 36 20 -33 19 -84 -24 0
-168 96 0
-168 25 0
-168 -34 0
-168 89 0
-168 -31 0
-168 -27 0
-168 84 0
-168 -40 0
-168 21 0
-168 -39 0
168 -96 -25 34 -89 31 27 -84 40 -21 39 0
-169 -20 0
-169 56 0
-169 -21 0
-169 54 0
-169 59 0
-169 35 0
-169 50 0
-169 -86 0
-169 89 0
-169 -1 0
169 20 -56 21 -54 -59 -35 -50 86 -89 1 0
-170 -64 0
-170 -41 0
-170 14 0
-170 58 0
-170 28 0
-170 68 0
-170 50 0
-170 -96 0
-170 19 0
-170 -61 0
170 64 41 -14 -58 -28 -68 -50 96 -19 61 0
161 162 163 164 165 166 167 168 169 170 0
-171 -51 0
-171 -63 0
-171 36 0
-171 53 0
-171 88 0
-171 -39 0
-171 -59 0
-171 3 0
-171 -24 0
-171 37 0
171 51 63 -36 -53 -88 39 59 -3 24 -37 0
-172 55 0
-172 -28 0
-172 87 0
-172 58 0
-172 -24 0
-172 17 0
-172 47 0
-172 19 0
-172 32 0
-172 -51 0
172 -55 28 -87 -58 24 -17 -47 -19 -32 51 0
-173 -87 0
-173 16 0
-173 24 0
-173 39 0
-173 65 0
-173 98 0
-173 -29 0
-173 -12 0
-173 -42 0
-173 17 0
173 87 -16 -24 -39 -65 -98 29 12 42 -17 0
-174 -5 0
-174 74 0
-174 82 0
-174 -86 0
-174 -95 0
-174 24 0
-174 -49 0
-174 70 0
-174 33 0
-174 91 0
174 5 -74 -82 86 95 -24 49 -70 -33 -91 0
-175 -54 0
-175 -76 0
-175 -24 0
-175 84 0
-175 95 0
-175 66 0
-175 -98 0
-175 -17 0
-175 38 0
-175 16 0
175 54 76 24 -84 -95 -66 98 17 -38 -16 0
-176 -99 0
-176 97 0
-176 1 0
-176 -63 0
-176 -17 0
-176 -59 0
-176 -83 0
-176 -75 0
-176 -12 0
-176 -50 0
176 99 -97 -1 63 17 59 83 75 12 50 0
-177 -84 0
-177 13 0
-177 5 0
-177 -96 0
-177 -32 0
-177 74 0
-177 38 0
-177 -29 0
-177 16 0
-177 44 0
177 84 -13 -5 96 32 -74 -38 29 -16 -44 0
-178 40 0
-178 -36 0
-178 99 0
-178 51 0
-178 47 0
-178 38 0
-178 2 0
-178 -74 0
-178 -94 0
-178 -92 0
178 -40 36 -99 -51 -47 -38 -2 74 94 92 0
-179 68 0
-179 -94 0
-179 -40 0
-179 -73 0
-179 22 0
-179 86 0
-179 -15 0
-179 -10 0
-179 95 0
-179 -45 0
179 -68 94 40 73 -22 -86 15 10 -95 45 0
-180 -47 0
-180 99 0
-180 17 0
-180 89 0
-180 11 0
-180 -88 0
-180 -97 0
-180 53 0
-180 -55 0
-180 9 0
180 47 -99 -17 -89 -11 88 97 -53 55 -9 0
171 172 173 174 175 176 177 178 179 180 0
-181 -22 0
-181 -39 0
-181 -44 0
-181 31 0
-181 28 0
-181 57 0
-181 27 0
-181 -3 0
-181 -4 0
-181 36 0
181 22 39 44 -31 -28 -57 -27 3 4 -36 0
-182 41 0
-182 -29 0
-182 -33 0
-182 4 0
-182 -89 0
-182 43 0
-182 45 0
-182 86 0
-182 -62 0
-182 6 0
182 -41 29 33 -4 89 -43 -45 -86 62 -6 0
-183 25 0
-183 86 0
-183 35 0
-183 20 0
-183 -5 0
-183 -18 0
-183 -75 0
-183 87 0
-183 12 0
-183 64 0
183 -25 -86 -35 -20 5 18 75 -87 -12 -64 0
-184 -45 0
-184 -63 0
-184 19 0
-184 7 0
-184 -1 0
-184 -44 0
-184 -23 0
-184 94 0
-184 4 0
-184 -53 0
184 45 63 -19 -7 1 44 23 -94 -4 53 0
-185 30 0
-185 42 0
-185 -19 0
-185 -29 0
-185 -26 0
-185 80 0
-185 -77 0
-185 -40 0
-185 62 0
-185 -48 0
185 -30 -42 19 29 26 -80 77 40 -62 48 0
-186 44 0
-186 -67 0
-186 -66 0
-186 -19 0
-186 55 0
-186 31 0
-186 14 0
-186 70 0
-186 30 0
-186 -90 0
186 -44 67 66 19 -55 -31 -14 -70 -30 90 0
-187 35 0
-187 8 0
-187 31 0
-187 -14 0
-187 -96 0
-187 -59 0
-187 -87 0
-187 63 0
-187 -62 0
-187 -71 0
187 -35 -8 -31 14 96 59 87 -63 62 71 0
-188 15 0
-188 21 0
-188 -71 0
-188 -69 0
-188 87 0
-188 22 0
-188 10 0
-188 -64 0
-188 -86 0
-188 -52 0
188 -15 -21 71 69 -87 -22 -10 64 86 52 0
-189 46 0
-189 7 0
-189 -11 0
-189 -73 0
-189 -62 0
-189 -40 0
-189 -64 0
-189 -61 0
-189 -99 0
-189 -66 0
189 -46 -7 11 73 62 40 64 61 99 66 0
-190 86 0
-190 -35 0
-190 -81 0
-190 -92 0
-190 15 0
-190 -71 0
-190 19 0
-190 -76 0
-190 90 0
-190 24 0
190 -86 35 81 92 -15 71 -19 76 -90 -24 0
181 182 183 184 185 186 187 188 189 190 0
-191 52 0
-191 -67 0
-191 -64 0
-191 -14 0
-191 13 0
-191 -35 0
-191 -45 0
-191 68 0
-191 69 0
-191 -25 0
191 -52 67 64 14 -13 35 45 -68 -69 25 0
-192 -77 0
-192 73 0
-192 20 0
-192 22 0
-192 -42 0
-192 -31 0
-192 66 0
-192 25 0
-192 3 0
-192 -59 0
192 77 -73 -20 -22 42 31 -66 -25 -3 59 0
-193 14 0
-193 -20 0
-193 -40 0
-193 44 0
-193 94 0
-193 -100 0
-193 -11 0
-193 -86 0
-193 41 0
-193 92 0
193 -14 20 40 -44 -94 100 11 86 -41 -92 0
-194 19 0
-194 12 0
-194 -79 0
-194 -73 0
-194 35 0
-194 22 0
-194 40 0
-194 -44 0
-194 71 0
-194 -39 0
194 -19 -12 79 73 -35 -22 -40 44 -71 39 0
-195 -36 0
-195 9 0
-195 -86 0
-195 -39 0
-195 -100 0
-195 -58 0
-195 42 0
-195 1 0
-195 60 0
-195 -70 0
195 36 -9 86 39 100 58 -42 -1 -60 70 0
-196 -92 0
-196 6 0
-196 -79 0
-196 -49 0
-196 8 0
-196 4 0
-196 -9 0
-196 -94 0
-196 72 0
-196 100 0
196 92 -6 79 49 -8 -4 9 94 -72 -100 0
-197 -55 0
-197 -16 0
-197 -37 0
-197 99 0
-197 -92 0
-197 -75 0
-197 96 0
-197 -52 0
-197 74 0
-197 49 0
197 55 16 37 -99 92 75 -96 52 -74 -49 0
-198 94 0
-198 92 0
-198 43 0
-198 -34 0
-198 -4 0
-198 -32 0
-198 -20 0
-198 66 0
-198 -55 0
-198 70 0
198 -94 -92 -43 34 4 32 20 -66 55 -70 0
-199 25 0
-199 -26 0
-199 -41 0
-199 64 0
-199 58 0
-199 34 0
-199 30 0
-199 -2 0
-199 23 0
-199 -16 0
199 -25 26 41 -64 -58 -34 -30 2 -23 16 0
-200 90 0
-200 -11 0
-200 -76 0
-200 56 0
-200 89 0
-200 -53 0
-200 -37 0
-200 50 0
-200 74 0
-200 68 0
200 -90 11 76 -56 -89 53 37 -50 -74 -68 0
191 192 193 194 195 196 197 198 199 200 0
